AES/1_4_4/ssaes_r1-20_c4_rw1_e4_f0_k1-20_aes_min_box_aes_mc_bidirectional/ExperimentMinisat_r14_k6cnf_2011-11-18-082944/Result
WARNING: for repeatability, setting FPU to use double precision
============================[ Problem Statistics ]=============================
|                                                                             |
|  Number of variables:          1056                                         |
|  Number of clauses:            4292                                         |
|  Parse time:                   0.00 s                                       |
|  Eliminated clauses:           0.01 Mb                                      |
|  Simplification time:          0.00 s                                       |
|                                                                             |
=============================[ Search Statistics ]==============================
| Conflicts  |          ORIGINAL         |          LEARNT          | Progress |
|            |    Vars  Clauses Literals |    Limit  Clauses Lit/Cl |          |
================================================================================
|        100 |     728     3300    10988 |     1210      100     10 |  8.334 % |
|        250 |     728     3300    10988 |     1331      250     12 |  8.333 % |
|        475 |     728     3300    10988 |     1464      475     12 |  8.333 % |
|        812 |     728     3300    10988 |     1610      812     14 |  8.333 % |
|       1318 |     728     3300    10988 |     1771     1318     15 |  8.333 % |
|       2077 |     728     3300    10988 |     1948     1118     12 |  8.333 % |
|       3216 |     728     3300    10988 |     2143     1230     11 |  8.333 % |
|       4924 |     728     3300    10988 |     2357     1804     13 |  8.333 % |
|       7486 |     728     3300    10988 |     2593     1895     13 |  8.333 % |
|      11330 |     728     3300    10988 |     2853     1673      9 |  8.333 % |
|      17096 |     728     3300    10988 |     3138     1498      8 |  8.333 % |
===============================================================================
restarts              : 78
conflicts             : 22321          (19016 /sec)
decisions             : 26699          (0.00 % random) (22745 /sec)
propagations          : 6053058        (5156713 /sec)
conflict literals     : 382554         (52.49 % deleted)
Memory used           : 8.00 MB
CPU time              : 1.17382 s

SATISFIABLE
